&CONTROL
  calculation = 'scf'
  restart_mode = 'restart'
  prefix = 'carbon_nanotube'
  outdir = './tmp/'
  pseudo_dir = '/home/alessandro_rotondi/q-e/pseudo/'
  verbosity = 'high'
  nstep = 500
/

&SYSTEM
  ibrav = 6
  a = 3.00000e+01
  c = 2.45951e+00
  nat = 20
  ntyp = 1
  ecutwfc = 40.0
  ecutrho = 326.0
  input_dft = 'PBE'
/

&ELECTRONS
  conv_thr = 1.0d-9
  mixing_beta = 0.6
/

K_POINTS (automatic)
  2 2 10 0 0 0

ATOMIC_SPECIES
  C  12.0107  C.pbe-n-kjpaw_psl.1.0.0.UPF

ATOMIC_POSITIONS (crystal)
C             0.5353381323        0.6092469104        0.5000000000
C             0.4070003150        0.5673833501        0.5000000000
C             0.4071864020        0.4323775108        0.5000000000
C             0.5356243877        0.3908438675        0.5000000000
C             0.6148290027        0.5001498619        0.5000000000
C             0.4878012378        0.6141684733        0.5000000000
C             0.3876395633        0.5236944248        0.5000000000
C             0.4427534477        0.4004670818        0.5000000000
C             0.5769840746        0.4147923743        0.5000000000
C             0.6048218434        0.5468732060        0.5000000000
C             0.4643834782        0.6091365486        0.0000000000
C             0.3851969638        0.4998544646        0.0000000000
C             0.4646664783        0.3907746699        0.0000000000
C             0.5929794579        0.4326267109        0.0000000000
C             0.5927971277        0.5676044051        0.0000000000
C             0.5572299652        0.5995134270        0.0000000000
C             0.4230303149        0.5851906097        0.0000000000
C             0.3952018510        0.4531321478        0.0000000000
C             0.5121971124        0.3858579867        0.0000000000
C             0.6123398442        0.4763119687        0.0000000000