&CONTROL
  calculation = 'scf'
  restart_mode = 'restart'
  prefix = 'carbon_nanotube'
  outdir = './tmp/'
  pseudo_dir = '/home/alessandro_rotondi/q-e/pseudo/'
  verbosity = 'high'
  nstep = 500
/

&SYSTEM
  ibrav = 6
  a = 3.00000e+01
  c = 2.45951e+00
  nat = 20
  ntyp = 1
  ecutwfc = 40.0
  ecutrho = 326.0
  input_dft = 'pbesol'
  vdw_corr = 'grimme-d3'
/

&ELECTRONS
  conv_thr = 1.0d-9
  mixing_beta = 0.6
/

K_POINTS (automatic)
  2 2 10 0 0 0

ATOMIC_SPECIES
  C  12.0107  C.UPF

ATOMIC_POSITIONS (crystal)
C             0.5349182755        0.6077880478        0.5000000000
C             0.4082703439        0.5665243781        0.5000000000
C             0.4083952023        0.4333278070        0.5000000000
C             0.5351093497        0.3922704169        0.5000000000
C             0.6133139408        0.5000943878        0.5000000000
C             0.4879126063        0.6126623444        0.5000000000
C             0.3891139715        0.5233263441        0.5000000000
C             0.4435581974        0.4017583064        0.5000000000
C             0.5760010986        0.4159562240        0.5000000000
C             0.6034109452        0.5463005077        0.5000000000
C             0.4648890431        0.6077331130        0.0000000000
C             0.3866821671        0.4999063275        0.0000000000
C             0.4650826028        0.3922072583        0.0000000000
C             0.5917322968        0.4334736872        0.0000000000
C             0.5916065356        0.5666734042        0.0000000000
C             0.5564434608        0.5982443278        0.0000000000
C             0.4239968607        0.5840491553        0.0000000000
C             0.3965846732        0.4536981656        0.0000000000
C             0.5120881178        0.3873343604        0.0000000000
C             0.6108913112        0.4766714364        0.0000000000