&CONTROL
  calculation = 'scf'
  prefix = 'carbon_nanotube'
  outdir = './tmp/'
  pseudo_dir = '/home/alessandro_rotondi/q-e/pseudo/'
  verbosity = 'high'
/

&SYSTEM
  ibrav = 6
  a = 3.00000e+01
  c = 2.45951e+00
  nat = 20
  ntyp = 1
  ecutwfc = 40.0
  ecutrho = 326.0
  input_dft = 'PBE'
  vdw_corr = 'rVV10'
/

&ELECTRONS
  conv_thr = 1.0d-8
  mixing_beta = 0.6
/

K_POINTS (automatic)
  2 2 10 0 0 0

ATOMIC_SPECIES
  C  12.0107  C.pbe-n-kjpaw_psl.1.0.0.UPF

ATOMIC_POSITIONS (crystal)
  C 0.534919 0.607469 0.500000
  C 0.408581 0.566420 0.500000
  C 0.408581 0.433580 0.500000
  C 0.534919 0.392531 0.500000
  C 0.613000 0.500000 0.500000
  C 0.487837 0.612344 0.500000
  C 0.389396 0.523149 0.500000
  C 0.443806 0.401963 0.500000
  C 0.575874 0.416261 0.500000
  C 0.603087 0.546284 0.500000
  C 0.464578 0.607305 0.000000
  C 0.387001 0.499470 0.000000
  C 0.465585 0.392368 0.000000
  C 0.591729 0.434009 0.000000
  C 0.591107 0.566848 0.000000
  C 0.556653 0.597772 0.000000
  C 0.424520 0.584093 0.000000
  C 0.396698 0.454200 0.000000
  C 0.511636 0.387601 0.000000
  C 0.610494 0.476333 0.000000