&CONTROL
  calculation = 'relax'
  forc_conv_thr = 1.0d-3
  restart_mode = 'restart'
  nstep = 500
  prefix = 'WSe2'
  outdir = './tmp/'
  pseudo_dir = '/home/alessandro_rotondi/q-e/pseudo/'
  verbosity = 'high'
/

&SYSTEM
  a = 3.32707e+00
  c = 1.50690e+01
  ibrav = 4
  nat = 6
  ntyp = 2  
  ecutwfc = 50.0
  ecutrho = 475.0
/

&ELECTRONS
  conv_thr = 1.0d-8
  mixing_beta = 0.6
/

&IONS
  ion_dynamics = 'bfgs'
  upscale = 3.0
/

K_POINTS (automatic)
  16 16 16 0 0 0

ATOMIC_SPECIES
W     183.84000  W.pbe-spn-kjpaw_psl.1.0.0.UPF
Se     78.96000  Se.pbe-dn-kjpaw_psl.1.0.0.UPF

ATOMIC_POSITIONS (crystal)
W       0.333333   0.666667   0.249999
W       0.666667   0.333333   0.749998
Se      0.666667   0.333333   0.361568
Se      0.333333   0.666667   0.861566
Se      0.666667   0.333333   0.138431
Se      0.333333   0.666667   0.638429