&CONTROL
  calculation = 'scf'
  restart_mode = 'restart'
  nstep = 500
  prefix = 'WSe2'
  outdir = './tmp/'
  pseudo_dir = '/home/alessandro_rotondi/q-e/pseudo/'
  verbosity = 'high'
/

&SYSTEM
  a = 3.32707e+00
  c = 1.50690e+01
  ibrav = 4
  nat = 6
  ntyp = 2  
  ecutwfc = 55.0
  ecutrho = 475.0
  input_dft = 'PBE'
  vdw_corr = 'XDM'
/

&ELECTRONS
  conv_thr = 1.0d-9
  mixing_beta = 0.5
/

&IONS
  ion_dynamics = 'bfgs'
  upscale = 3.0
/

K_POINTS (automatic)
  16 16 16 0 0 0

ATOMIC_SPECIES
W     183.84000  W.pbe-spn-kjpaw_psl.1.0.0.UPF
Se     78.96000  Se.pbe-dn-kjpaw_psl.1.0.0.UPF

ATOMIC_POSITIONS (crystal)
W             0.3333330000        0.6666670000        0.2499990000
W             0.6666670000        0.3333330000        0.7499980000
Se            0.6666670000        0.3333330000        0.3595864071
Se            0.3333330000        0.6666670000        0.8595844071
Se            0.6666670000        0.3333330000        0.1404125929
Se            0.3333330000        0.6666670000        0.6404105929